 Code   832
 Dimension, Fixed Cost
   100        3000
 Facility, Client, Transportation Cost
     1       17           4
     1       25           0
     1       43           0
     1       59           3
     1       78           2
     1       80           1
     1       85           3
     1       99           1
     2        3           1
     2        6           4
     2        9           4
     2       37           1
     2       66           1
     2       69           3
     2       70           2
     2       78           1
     2       85           0
     2       91           4
     3       11           2
     3       14           4
     3       19           3
     3       51           3
     3       53           4
     3       64           3
     3       75           0
     3       86           2
     4        1           2
     4        3           4
     4       14           3
     4       22           3
     4       34           0
     4       38           3
     4       57           1
     4       58           1
     4       98           0
     5        3           2
     5       16           2
     5       23           0
     5       29           0
     5       47           0
     5       54           4
     5       80           0
     5       81           3
     5       84           4
     5       88           0
     6       12           3
     6       14           4
     6       30           1
     6       35           3
     6       55           2
     6       60           2
     6       75           1
     6       99           2
     7        5           4
     7       10           0
     7       25           2
     7       40           4
     7       51           4
     7       54           3
     7       57           1
     7       79           2
     7       94           3
     8        3           4
     8        4           1
     8       20           3
     8       22           2
     8       25           2
     8       26           3
     8       29           2
     8       32           4
     8       60           0
     8       99           0
     9        8           1
     9       27           3
     9       34           4
     9       56           4
     9       69           1
     9       73           3
     9       92           2
     9       97           1
    10       39           3
    10       44           2
    10       57           4
    10       58           1
    10       59           3
    10       77           4
    10       80           3
    10       85           3
    10       89           1
    10       90           4
    10       97           0
    11       18           2
    11       19           2
    11       29           0
    11       62           3
    11       63           1
    11       66           1
    11       77           0
    11       83           0
    11       87           4
    11       96           4
    12        8           2
    12       10           0
    12       22           4
    12       24           1
    12       39           2
    12       40           4
    12       56           0
    12       83           3
    13        5           4
    13       11           1
    13       27           0
    13       33           1
    13       36           0
    13       39           1
    13       40           3
    13       67           3
    13       70           0
    13       76           4
    13       86           2
    13       88           0
    13       99           1
    13      100           4
    14        6           3
    14       17           1
    14       36           2
    14       49           3
    14       51           4
    14       68           1
    14       74           2
    14       79           4
    14       88           3
    14       92           4
    15        5           0
    15        6           2
    15       33           3
    15       36           4
    15       46           2
    15       51           4
    15       58           0
    15       60           4
    15       72           4
    15       86           1
    16       21           1
    16       23           2
    16       38           3
    16       56           3
    16       60           0
    16       73           2
    16       82           1
    16       90           1
    17        7           4
    17       12           0
    17       15           3
    17       17           0
    17       24           4
    17       83           2
    18        4           4
    18        5           1
    18       31           3
    18       43           1
    18       49           4
    18       52           1
    18       62           1
    18       77           0
    18       89           3
    18       91           4
    18       94           2
    19        1           1
    19       17           4
    19       18           0
    19       30           0
    19       59           4
    19       71           2
    19       77           4
    19       78           1
    19       80           0
    19       81           4
    19       82           1
    19       85           2
    19       91           4
    19       92           2
    19       98           2
    20       23           3
    20       33           2
    20       46           4
    20       50           1
    20       59           1
    20       65           3
    20       79           0
    20      100           0
    21        7           3
    21       32           2
    21       33           0
    21       36           1
    21       37           3
    21       41           0
    21       43           4
    21       45           1
    21       50           1
    21       51           3
    21       60           0
    21       67           2
    21       69           4
    21       73           0
    21       78           4
    21       79           1
    21       86           2
    22        9           3
    22       12           2
    22       30           3
    22       66           4
    22       80           0
    22       83           4
    22       87           4
    22       89           4
    22       91           2
    22      100           0
    23        6           0
    23       11           1
    23       13           1
    23       16           1
    23       43           1
    23       59           1
    23       71           0
    23       78           3
    23       94           0
    23       95           0
    24        1           3
    24        5           1
    24        7           3
    24       13           1
    24       14           0
    24       32           4
    24       35           2
    24       43           1
    24       45           2
    24       57           0
    24       71           2
    24       74           4
    24       77           1
    24       95           2
    25       18           4
    25       24           0
    25       25           2
    25       39           0
    25       53           3
    25       64           2
    25       66           1
    25       74           2
    25       96           3
    26       10           2
    26       11           2
    26       26           2
    26       30           1
    26       47           4
    26       52           3
    26       63           0
    26       86           0
    26       92           3
    26       94           0
    27       20           4
    27       38           4
    27       57           1
    27       63           0
    27       72           4
    27       73           3
    27       80           4
    27       83           2
    27       88           1
    28       12           2
    28       32           1
    28       47           0
    28       52           3
    28       75           4
    28       93           3
    29        1           3
    29        7           1
    29        8           0
    29       15           4
    29       28           2
    29       36           1
    29       42           0
    29       49           3
    29       52           1
    29       61           4
    29       65           0
    29       74           3
    29       84           1
    29       93           1
    29      100           2
    30        9           0
    30       10           1
    30       13           4
    30       14           3
    30       40           2
    30       44           3
    30       57           3
    30       60           0
    30       62           3
    30       64           4
    30       78           3
    30       81           1
    30       93           1
    30       96           3
    30       98           2
    30       99           1
    31       20           0
    31       26           3
    31       29           1
    31       35           0
    31       55           3
    31       65           4
    31       70           2
    31       93           0
    31       94           0
    31       95           1
    32        1           4
    32       18           4
    32       20           3
    32       35           1
    32       37           1
    32       49           1
    32       58           3
    32       68           4
    32       75           1
    32       78           3
    32       91           1
    33       18           2
    33       41           4
    33       48           1
    33       62           3
    33       63           4
    33       71           2
    34        4           1
    34       10           1
    34       14           4
    34       15           4
    34       22           4
    34       37           4
    34       41           3
    34       43           3
    34       53           0
    34       56           0
    34       61           2
    34       63           1
    34       88           1
    35        1           2
    35        2           0
    35       21           2
    35       29           1
    35       34           4
    35       39           3
    35       47           4
    35       50           4
    35       79           4
    35      100           0
    36        7           0
    36       24           2
    36       30           3
    36       44           2
    36       60           0
    36       62           4
    36       64           4
    36       72           0
    36       82           1
    36       89           4
    37        3           0
    37        8           3
    37       17           1
    37       61           3
    37       80           4
    37       85           0
    37       97           4
    38       11           1
    38       16           3
    38       37           4
    38       39           2
    38       40           2
    38       55           1
    38       58           0
    38       59           2
    38       60           0
    38       76           2
    38       92           4
    38       94           3
    39        9           2
    39       23           0
    39       24           2
    39       25           0
    39       35           3
    39       36           1
    39       38           4
    39       42           0
    39       51           2
    39       57           1
    39       81           0
    39       95           1
    40        2           0
    40       19           1
    40       21           2
    40       27           2
    40       38           3
    40       45           2
    40       49           4
    40       64           3
    40       69           0
    40       95           1
    40       96           1
    41       19           0
    41       21           1
    41       25           2
    41       32           4
    41       56           4
    41       74           0
    41       82           4
    41       84           0
    42        8           3
    42       11           2
    42       38           3
    42       42           2
    42       49           2
    42       73           0
    43       12           0
    43       44           2
    43       51           2
    43       54           0
    43       58           4
    43       64           4
    43       66           2
    43       74           0
    43       79           4
    43       81           2
    43       97           3
    44        4           4
    44       13           3
    44       26           1
    44       40           1
    44       52           1
    44       82           3
    44       89           2
    44       90           1
    45       12           3
    45       28           0
    45       31           4
    45       33           0
    45       38           1
    45       54           0
    45       68           1
    45       77           1
    45       84           4
    45       86           2
    45       93           3
    45       99           2
    46       10           3
    46       56           4
    46       71           0
    47        9           0
    47       23           3
    47       57           2
    47       66           2
    47       73           1
    47       76           4
    47       79           2
    47       80           0
    47       88           0
    47       97           4
    48        2           0
    48       30           3
    48       33           4
    48       34           4
    48       37           0
    48       39           1
    48       44           0
    48       62           4
    48       66           1
    48       67           2
    48       85           1
    48       87           3
    49       28           1
    49       41           2
    49       61           2
    49       83           4
    49       88           3
    50        8           2
    50       18           2
    50       28           2
    50       32           3
    50       63           4
    50       79           1
    50       91           4
    50       92           2
    50       98           0
    50       99           2
    51        1           3
    51       13           4
    51       36           4
    51       40           1
    51       45           0
    51       47           4
    51       48           4
    52        9           0
    52       30           0
    52       31           4
    52       41           1
    52       45           1
    52       63           1
    52       70           1
    52       84           1
    52       86           1
    52       89           4
    53        6           0
    53       19           0
    53       34           0
    53       35           2
    53       64           4
    53       65           2
    53       68           1
    53       69           1
    53       75           1
    53       99           0
    54       15           2
    54       41           3
    54       43           3
    54       53           4
    54       58           2
    54       61           0
    54       78           1
    54       80           1
    54       86           2
    54       88           4
    55        4           1
    55        9           4
    55       20           3
    55       30           4
    55       48           0
    55       59           1
    55       61           3
    55       74           4
    55       76           3
    55       99           3
    56        3           4
    56        8           1
    56        9           2
    56       10           0
    56       19           2
    56       24           1
    56       25           0
    56       26           1
    56       34           0
    56       44           2
    56       47           4
    56       50           2
    56       68           0
    56       77           0
    56       93           0
    57        5           1
    57       30           3
    57       51           1
    57       63           1
    57       64           2
    57       80           2
    57       89           4
    57       94           4
    57       95           2
    58        2           2
    58        8           3
    58       20           1
    58       22           4
    58       36           4
    58       42           0
    58       45           0
    58       58           1
    58       64           2
    58       75           4
    58       87           3
    58       89           0
    58       97           3
    59        1           3
    59       14           1
    59       15           0
    59       26           3
    59       27           2
    59       44           4
    59       46           0
    59       66           0
    59       69           3
    59       84           1
    60        8           2
    60       24           4
    60       25           4
    60       33           4
    60       40           2
    60       42           0
    60       49           3
    60       58           1
    60       65           0
    60       69           1
    60       71           3
    60       74           0
    60       76           4
    60       90           0
    61       10           0
    61       20           4
    61       29           1
    61       32           4
    61       36           3
    61       46           0
    61       48           1
    61       96           3
    62       27           2
    62       29           2
    62       31           3
    62       39           4
    62       47           4
    62       59           3
    62       62           2
    62       77           2
    62       83           3
    62       84           0
    62       96           0
    63        7           0
    63       11           4
    63       17           2
    63       27           1
    63       66           0
    63       84           2
    63       93           0
    63       97           2
    64        3           3
    64       28           0
    64       35           4
    64       37           3
    64       54           4
    64       57           1
    64       70           3
    64       82           1
    64       87           1
    64       93           0
    65       27           2
    65       31           0
    65       41           4
    65       68           3
    65       72           2
    65       86           4
    65       98           0
    66       15           4
    66       35           0
    66       40           4
    66       52           3
    66       69           0
    66       71           0
    66       72           2
    66       76           2
    66       90           3
    66       93           2
    66       95           4
    67       31           3
    67       42           1
    67      100           2
    68        3           1
    68        4           2
    68       28           4
    68       38           4
    68       45           4
    68       50           1
    68       54           0
    68       71           1
    68       85           1
    68       87           2
    68       90           0
    69        4           4
    69       13           1
    69       14           4
    69       20           3
    69       21           3
    69       25           3
    69       34           2
    69       53           2
    69       55           4
    69       65           1
    69       81           1
    70        6           4
    70       16           0
    70       37           0
    70       40           1
    70       48           2
    70       50           3
    70       65           4
    70       67           1
    70       82           3
    71       22           3
    71       34           3
    71       79           3
    71       83           1
    71       86           0
    72       42           2
    72       52           4
    72       63           3
    72       74           3
    72       95           3
    72       97           2
    73        2           2
    73        3           3
    73       16           4
    73       26           2
    73       33           2
    73       34           0
    73       37           3
    73       44           4
    73       45           2
    73       53           4
    73       59           1
    73       62           0
    73       70           0
    73       81           3
    73       95           1
    74        7           1
    74       12           3
    74       23           1
    74       36           4
    74       39           1
    74       47           1
    74       55           0
    74       61           3
    74       69           1
    74       96           3
    75       10           4
    75       11           4
    75       19           4
    75       44           3
    75       45           2
    75       65           1
    75       67           2
    75       73           4
    75       75           3
    75       89           3
    76       46           2
    76       51           3
    76       52           2
    76       54           4
    76       61           1
    76       68           2
    76       74           4
    76       77           1
    76       89           2
    76       96           2
    77        2           4
    77       13           1
    77       22           2
    77       24           2
    77       32           1
    77       38           2
    77       67           2
    78        7           1
    78       21           2
    78       22           1
    78       52           3
    78       67           2
    78       70           4
    78       72           4
    78       81           3
    78       82           1
    79       17           3
    79       18           1
    79       20           3
    79       38           4
    79       46           4
    79       49           0
    79       56           4
    79       69           3
    79       71           3
    79       73           4
    79       76           2
    79       87           2
    79       90           4
    79       94           2
    79       96           4
    79      100           0
    80        1           0
    80       28           2
    80       31           4
    80       39           2
    80       55           0
    80       70           3
    80       93           1
    81        8           0
    81       29           4
    81       33           0
    81       41           3
    81       53           3
    81       60           0
    81       65           1
    81       72           3
    82       11           0
    82       23           1
    82       28           4
    82       32           4
    82       48           0
    82       51           1
    82       71           4
    82       75           2
    82       88           1
    83       14           2
    83       19           1
    83       31           4
    83       33           4
    83       43           3
    83       49           3
    83       78           4
    84        2           3
    84        3           4
    84        4           4
    84       16           2
    84       17           1
    84       19           4
    84       43           1
    84       50           0
    84       53           3
    84       55           2
    84       62           2
    84       63           2
    84       68           1
    84       75           1
    84       79           4
    84       83           2
    84       90           3
    84       92           2
    84      100           4
    85        1           1
    85       17           4
    85       21           3
    85       56           3
    85       67           2
    85       84           2
    85       98           0
    86       12           2
    86       16           3
    86       18           4
    86       43           2
    86       46           0
    86       87           1
    86       90           2
    86      100           4
    87        6           1
    87       13           0
    87       16           4
    87       23           1
    87       24           3
    87       28           4
    87       41           3
    87       48           3
    87       49           4
    87       55           1
    87       61           0
    87       73           2
    87       94           0
    88        6           2
    88       22           4
    88       25           0
    88       42           3
    88       53           4
    88       55           3
    88       67           4
    88       68           2
    88       77           0
    88       85           0
    88       92           4
    89        2           2
    89        6           4
    89       13           0
    89       15           3
    89       17           1
    89       18           0
    89       42           0
    89       48           2
    89       56           3
    89       70           0
    89       75           3
    89       78           2
    89       98           3
    89       99           2
    90        4           4
    90       12           1
    90       27           1
    90       28           0
    90       31           3
    90       55           1
    90       61           0
    90       67           3
    90       73           2
    90       81           1
    90       91           4
    90       98           1
    91        2           1
    91       10           2
    91       26           1
    91       47           3
    91       58           2
    91       59           3
    91       76           0
    91       98           3
    92        5           3
    92        7           4
    92       14           4
    92       27           4
    92       46           1
    92       60           1
    92       66           0
    92       72           3
    92       82           0
    92       87           2
    93        5           4
    93       21           4
    93       24           0
    93       29           1
    93       35           3
    93       37           3
    93       50           1
    93       53           1
    93       91           1
    93       92           4
    94        5           2
    94       26           2
    94       30           4
    94       35           4
    94       41           3
    94       54           4
    94       64           2
    94       76           4
    94       95           1
    95        4           0
    95        7           1
    95       12           0
    95       15           3
    95       22           1
    95       44           0
    95       48           3
    95       50           3
    95       56           3
    95       72           3
    95       82           0
    95       85           1
    95       92           1
    96        2           4
    96       15           2
    96       18           1
    96       21           3
    96       23           4
    96       31           1
    96       42           4
    96       45           3
    96       68           0
    96       70           2
    96       76           1
    96       84           1
    97        6           4
    97        9           2
    97       13           2
    97       15           0
    97       16           0
    97       34           1
    97       62           4
    97       85           0
    97       96           3
    97      100           1
    98       11           4
    98       16           1
    98       19           4
    98       46           0
    98       50           0
    98       52           1
    98       54           0
    98       57           2
    98       72           1
    98       83           3
    98       87           1
    98       94           4
    98       97           1
    98       98           1
    99        9           3
    99       20           1
    99       27           2
    99       29           0
    99       47           2
    99       65           0
    99       81           0
    99       88           4
    99       90           4
    99       91           3
    99       97           2
   100        5           2
   100       21           2
   100       23           0
   100       26           4
   100       32           0
   100       46           3
   100       48           4
   100       54           0
   100       91           2
